Minimize
  - 7 y_0 - 6 y_1 - 8 y_2 - 11 y_3 - 14 y_4 - 9 y_5 - 16 y_6 - 9 y_7
   - 10 y_8 - 18 y_9 - 15 y_10 - 16 y_11 - 6 y_12 - 14 y_13 - 14 y_14
   - 16 y_15 - 10 y_16 - 10 y_17 - 6 y_19 + 78 x_0_4 + 16 x_0_5 + 80 x_0_6
   + 29 x_0_7 + 97 x_0_9 + 74 x_0_10 + 77 x_0_13 + 68 x_1_4 + 40 x_1_5
   + 60 x_1_7 + 83 x_1_10 + 89 x_1_11 + 72 x_1_13 + 66 x_2_4 + 35 x_2_8
   + 93 x_2_9 + 54 x_2_11 + 36 x_2_16 + 81 x_3_4 + 76 x_3_7 + 76 x_3_9
   + 105 x_3_11 + 59 x_3_12 + 86 x_3_13 + 78 x_3_16 + 43 x_3_18 + 67 x_3_19
   + 90 x_4_5 + 91 x_4_17 + 94 x_5_6 + 42 x_5_15 + 35 x_5_18 + 40 x_5_19
   + 58 x_6_19 + 95 x_7_9 + 50 x_7_11 + 23 x_8_12 + 30 x_8_13 + 69 x_8_14
   + 76 x_8_15 + 81 x_8_17 + 82 x_9_11 + 46 x_9_13 + 66 x_9_16 + 40 x_10_12
   + 27 x_10_13 + 92 x_10_15 + 51 x_11_19 + 19 x_12_16 + 70 x_14_16
   + 56 x_14_18 + 41 x_14_19 + 77 x_15_16 + 72 x_15_17 + 79 x_16_17
   + 39 x_16_18 + 59 x_17_19 + 215 Constant
Subject To
 c_0: y_15 = 1
 c_1_0: y_0 >= 1
 c_1_1: y_1 >= 1
 c_1_2: y_2 >= 1
 c_1_3: y_3 >= 1
 c_1_4: y_4 >= 1
 c_1_5: y_5 >= 1
 c_1_6: y_6 >= 1
 c_1_7: y_7 >= 1
 c_1_8: y_8 + y_16 >= 1
 c_1_9: y_9 >= 1
 c_1_10: y_10 >= 1
 c_1_11: y_11 >= 1
 c_1_12: y_12 >= 1
 c_1_13: y_13 >= 1
 c_1_14: y_14 >= 1
 c_1_15: y_15 >= 1
 c_1_16: y_8 + y_16 >= 1
 c_1_17: y_17 >= 1
 c_1_18: y_18 >= 1
 c_1_19: y_19 >= 1
 c_2_0: - 2 y_0 + x_0_4 + x_0_5 + x_0_6 + x_0_7 + x_0_9 + x_0_10 + x_0_13
   = 0
 c_2_1: - 2 y_1 + x_1_4 + x_1_5 + x_1_7 + x_1_10 + x_1_11 + x_1_13 = 0
 c_2_2: - 2 y_2 + x_2_4 + x_2_8 + x_2_9 + x_2_11 + x_2_16 = 0
 c_2_3: - 2 y_3 + x_3_4 + x_3_7 + x_3_9 + x_3_11 + x_3_12 + x_3_13 + x_3_16
   + x_3_18 + x_3_19 = 0
 c_2_4: - 2 y_4 + x_0_4 + x_1_4 + x_2_4 + x_3_4 + x_4_5 + x_4_17 = 0
 c_2_5: - 2 y_5 + x_0_5 + x_1_5 + x_4_5 + x_5_6 + x_5_15 + x_5_18 + x_5_19
   = 0
 c_2_6: - 2 y_6 + x_0_6 + x_5_6 + x_6_19 = 0
 c_2_7: - 2 y_7 + x_0_7 + x_1_7 + x_3_7 + x_7_9 + x_7_11 = 0
 c_2_8: - 2 y_8 + x_2_8 + x_8_12 + x_8_13 + x_8_14 + x_8_15 + x_8_17 = 0
 c_2_9: - 2 y_9 + x_0_9 + x_2_9 + x_3_9 + x_7_9 + x_9_11 + x_9_13 + x_9_16
   = 0
 c_2_10: - 2 y_10 + x_0_10 + x_1_10 + x_10_12 + x_10_13 + x_10_15 = 0
 c_2_11: - 2 y_11 + x_1_11 + x_2_11 + x_3_11 + x_7_11 + x_9_11 + x_11_19
   = 0
 c_2_12: - 2 y_12 + x_3_12 + x_8_12 + x_10_12 + x_12_16 = 0
 c_2_13: - 2 y_13 + x_0_13 + x_1_13 + x_3_13 + x_8_13 + x_9_13 + x_10_13
   = 0
 c_2_14: - 2 y_14 + x_8_14 + x_14_16 + x_14_18 + x_14_19 = 0
 c_2_15: - 2 y_15 + x_5_15 + x_8_15 + x_10_15 + x_15_16 + x_15_17 = 0
 c_2_16: - 2 y_16 + x_2_16 + x_3_16 + x_9_16 + x_12_16 + x_14_16 + x_15_16
   + x_16_17 + x_16_18 = 0
 c_2_17: - 2 y_17 + x_4_17 + x_8_17 + x_15_17 + x_16_17 + x_17_19 = 0
 c_2_18: - 2 y_18 + x_3_18 + x_5_18 + x_14_18 + x_16_18 = 0
 c_2_19: - 2 y_19 + x_3_19 + x_5_19 + x_6_19 + x_11_19 + x_14_19 + x_17_19
   = 0
Bounds
 Constant = 1
Binaries
 y_0 y_1 y_2 y_3 y_4 y_5 y_6 y_7 y_8 y_9 y_10 y_11 y_12 y_13 y_14 y_15 y_16
 y_17 y_18 y_19 x_0_4 x_0_5 x_0_6 x_0_7 x_0_9 x_0_10 x_0_13 x_1_4 x_1_5
 x_1_7 x_1_10 x_1_11 x_1_13 x_2_4 x_2_8 x_2_9 x_2_11 x_2_16 x_3_4 x_3_7
 x_3_9 x_3_11 x_3_12 x_3_13 x_3_16 x_3_18 x_3_19 x_4_5 x_4_17 x_5_6 x_5_15
 x_5_18 x_5_19 x_6_19 x_7_9 x_7_11 x_8_12 x_8_13 x_8_14 x_8_15 x_8_17
 x_9_11 x_9_13 x_9_16 x_10_12 x_10_13 x_10_15 x_11_19 x_12_16 x_14_16
 x_14_18 x_14_19 x_15_16 x_15_17 x_16_17 x_16_18 x_17_19
End
